Minimize
	value: tt

Subject to
tt + 1000 s_1_1 > 0.0
tt - t_1_1 - 1003.703886 s_1_1  + 3.703886 s_1_7  > -969.658644
tt + 1000 s_2_1 > 0.0
tt - t_2_1 - 1003.362924 s_2_1  + 3.362924 s_2_7  > -957.757475
tt + 1000 s_1_2 > 0.0
tt - t_1_2 - 1003.703886 s_1_2  + 3.703886 s_1_8  > -965.017900
tt + 1000 s_2_2 > 0.0
tt - t_2_2 - 1003.362924 s_2_2  + 3.362924 s_2_8  > -951.332589
tt + 1000 s_1_3 > 0.0
tt - t_1_3 - 1003.703886 s_1_3  + 3.703886 s_1_8  > -958.171289
tt + 1000 s_2_3 > 0.0
tt - t_2_3 - 1003.362924 s_2_3  + 3.362924 s_2_8  > -931.066627
tt + 1000 s_1_4 > 0.0
tt - t_1_4 - 1007.407772 s_1_4  + 3.703886 s_1_3  + 3.703886 s_1_8  > -973.519633
tt + 1000 s_2_4 > 0.0
tt - t_2_4 - 1006.725849 s_2_4  + 3.362924 s_2_3  + 3.362924 s_2_8  > -962.019844
tt + 1000 s_1_5 > 0.0
tt - t_1_5 - 1007.407772 s_1_5  + 3.703886 s_1_7  + 3.703886 s_1_8  > -979.142067
tt + 1000 s_2_5 > 0.0
tt - t_2_5 - 1006.725849 s_2_5  + 3.362924 s_2_7  + 3.362924 s_2_8  > -965.839431
tt + 1000 s_1_6 > 0.0
tt - t_1_6 - 1018.519429 s_1_6  + 3.703886 s_1_2  + 3.703886 s_1_4  + 3.703886 s_1_1  + 3.703886 s_1_3  + 3.703886 s_1_5  > -995.647100
tt + 1000 s_2_6 > 0.0
tt - t_2_6 - 1016.814622 s_2_6  + 3.362924 s_2_2  + 3.362924 s_2_4  + 3.362924 s_2_1  + 3.362924 s_2_3  + 3.362924 s_2_5  > -944.409400
tt + 1000 s_1_7 > 0.0
tt - t_1_7 - 1000.000000 s_1_7  > -940.442644
tt + 1000 s_2_7 > 0.0
tt - t_2_7 - 1000.000000 s_2_7  > -930.030300
tt + 1000 s_1_8 > 0.0
tt - t_1_8 - 1000.000000 s_1_8  > -940.286400
tt + 1000 s_2_8 > 0.0
tt - t_2_8 - 1000.000000 s_2_8  > -930.617200
s_1_1 + s_2_1 = 1
s_1_2 + s_2_2 = 1
s_1_3 + s_2_3 = 1
s_1_4 + s_2_4 = 1
s_1_5 + s_2_5 = 1
s_1_6 + s_2_6 = 1
s_1_7 + s_2_7 = 1
s_1_8 + s_2_8 = 1
s_1_1 + s_1_2 + 1000 r_1_1_2 >= 2
- s_1_1 - s_1_2 - 1000 r_1_1_2 >= -1001
t_1_1 - t_1_2 - 1000.000000 u_1_1_2 - 3.703886 s_1_2  + 3.703886 s_1_8  + 2000.000000 r_1_1_2 > -965.017900
s_2_1 + s_2_2 + 1000 r_2_1_2 >= 2
- s_2_1 - s_2_2 - 1000 r_2_1_2 >= -1001
t_2_1 - t_2_2 - 1000.000000 u_2_1_2 - 3.362924 s_2_2  + 3.362924 s_2_8  + 2000.000000 r_2_1_2 > -951.332589
s_1_1 + s_1_3 + 1000 r_1_1_3 >= 2
- s_1_1 - s_1_3 - 1000 r_1_1_3 >= -1001
t_1_1 - t_1_3 - 1000.000000 u_1_1_3 - 3.703886 s_1_3  + 3.703886 s_1_8  + 2000.000000 r_1_1_3 > -958.171289
s_2_1 + s_2_3 + 1000 r_2_1_3 >= 2
- s_2_1 - s_2_3 - 1000 r_2_1_3 >= -1001
t_2_1 - t_2_3 - 1000.000000 u_2_1_3 - 3.362924 s_2_3  + 3.362924 s_2_8  + 2000.000000 r_2_1_3 > -931.066627
s_1_1 + s_1_4 + 1000 r_1_1_4 >= 2
- s_1_1 - s_1_4 - 1000 r_1_1_4 >= -1001
t_1_1 - t_1_4 - 1000.000000 u_1_1_4 - 7.407772 s_1_4  + 3.703886 s_1_3  + 3.703886 s_1_8  + 2000.000000 r_1_1_4 > -973.519633
s_2_1 + s_2_4 + 1000 r_2_1_4 >= 2
- s_2_1 - s_2_4 - 1000 r_2_1_4 >= -1001
t_2_1 - t_2_4 - 1000.000000 u_2_1_4 - 6.725849 s_2_4  + 3.362924 s_2_3  + 3.362924 s_2_8  + 2000.000000 r_2_1_4 > -962.019844
s_1_1 + s_1_5 + 1000 r_1_1_5 >= 2
- s_1_1 - s_1_5 - 1000 r_1_1_5 >= -1001
t_1_1 - t_1_5 - 1000.000000 u_1_1_5 - 7.407772 s_1_5  + 3.703886 s_1_7  + 3.703886 s_1_8  + 2000.000000 r_1_1_5 > -979.142067
s_2_1 + s_2_5 + 1000 r_2_1_5 >= 2
- s_2_1 - s_2_5 - 1000 r_2_1_5 >= -1001
t_2_1 - t_2_5 - 1000.000000 u_2_1_5 - 6.725849 s_2_5  + 3.362924 s_2_7  + 3.362924 s_2_8  + 2000.000000 r_2_1_5 > -965.839431
t_1_6 - t_1_1 - 1003.703886 s_1_1  + 3.703886 s_1_7  > -969.658644
t_1_6 - t_2_1 - 1003.362924 s_2_1  + 3.362924 s_2_7  > -957.757475
t_2_6 - t_1_1 - 1003.703886 s_1_1  + 3.703886 s_1_7  > -969.658644
t_2_6 - t_2_1 - 1003.362924 s_2_1  + 3.362924 s_2_7  > -957.757475
t_1_1 - t_1_7 - 1000.000000 s_1_7  > -940.442644
t_1_1 - t_2_7 - 1000.000000 s_2_7  > -930.030300
t_2_1 - t_1_7 - 1000.000000 s_1_7  > -940.442644
t_2_1 - t_2_7 - 1000.000000 s_2_7  > -930.030300
s_1_1 + s_1_8 + 1000 r_1_1_8 >= 2
- s_1_1 - s_1_8 - 1000 r_1_1_8 >= -1001
t_1_1 - t_1_8 - 1000.000000 u_1_1_8 - 0.000000 s_1_8  + 2000.000000 r_1_1_8 > -940.286400
s_2_1 + s_2_8 + 1000 r_2_1_8 >= 2
- s_2_1 - s_2_8 - 1000 r_2_1_8 >= -1001
t_2_1 - t_2_8 - 1000.000000 u_2_1_8 - 0.000000 s_2_8  + 2000.000000 r_2_1_8 > -930.617200
s_1_2 + s_1_1 + 1000 r_1_1_2 >= 2
- s_1_2 - s_1_1 - 1000 r_1_1_2 >= -1001
t_1_2 - t_1_1 + 1000.000000 u_1_1_2 - 3.703886 s_1_1  + 3.703886 s_1_7  + 2000.000000 r_1_1_2 > 30.341356
s_2_2 + s_2_1 + 1000 r_2_1_2 >= 2
- s_2_2 - s_2_1 - 1000 r_2_1_2 >= -1001
t_2_2 - t_2_1 + 1000.000000 u_2_1_2 - 3.362924 s_2_1  + 3.362924 s_2_7  + 2000.000000 r_2_1_2 > 42.242525
s_1_2 + s_1_3 + 1000 r_1_2_3 >= 2
- s_1_2 - s_1_3 - 1000 r_1_2_3 >= -1001
t_1_2 - t_1_3 - 1000.000000 u_1_2_3 - 3.703886 s_1_3  + 3.703886 s_1_8  + 2000.000000 r_1_2_3 > -958.171289
s_2_2 + s_2_3 + 1000 r_2_2_3 >= 2
- s_2_2 - s_2_3 - 1000 r_2_2_3 >= -1001
t_2_2 - t_2_3 - 1000.000000 u_2_2_3 - 3.362924 s_2_3  + 3.362924 s_2_8  + 2000.000000 r_2_2_3 > -931.066627
s_1_2 + s_1_4 + 1000 r_1_2_4 >= 2
- s_1_2 - s_1_4 - 1000 r_1_2_4 >= -1001
t_1_2 - t_1_4 - 1000.000000 u_1_2_4 - 7.407772 s_1_4  + 3.703886 s_1_3  + 3.703886 s_1_8  + 2000.000000 r_1_2_4 > -973.519633
s_2_2 + s_2_4 + 1000 r_2_2_4 >= 2
- s_2_2 - s_2_4 - 1000 r_2_2_4 >= -1001
t_2_2 - t_2_4 - 1000.000000 u_2_2_4 - 6.725849 s_2_4  + 3.362924 s_2_3  + 3.362924 s_2_8  + 2000.000000 r_2_2_4 > -962.019844
s_1_2 + s_1_5 + 1000 r_1_2_5 >= 2
- s_1_2 - s_1_5 - 1000 r_1_2_5 >= -1001
t_1_2 - t_1_5 - 1000.000000 u_1_2_5 - 7.407772 s_1_5  + 3.703886 s_1_7  + 3.703886 s_1_8  + 2000.000000 r_1_2_5 > -979.142067
s_2_2 + s_2_5 + 1000 r_2_2_5 >= 2
- s_2_2 - s_2_5 - 1000 r_2_2_5 >= -1001
t_2_2 - t_2_5 - 1000.000000 u_2_2_5 - 6.725849 s_2_5  + 3.362924 s_2_7  + 3.362924 s_2_8  + 2000.000000 r_2_2_5 > -965.839431
t_1_6 - t_1_2 - 1003.703886 s_1_2  + 3.703886 s_1_8  > -965.017900
t_1_6 - t_2_2 - 1003.362924 s_2_2  + 3.362924 s_2_8  > -951.332589
t_2_6 - t_1_2 - 1003.703886 s_1_2  + 3.703886 s_1_8  > -965.017900
t_2_6 - t_2_2 - 1003.362924 s_2_2  + 3.362924 s_2_8  > -951.332589
s_1_2 + s_1_7 + 1000 r_1_2_7 >= 2
- s_1_2 - s_1_7 - 1000 r_1_2_7 >= -1001
t_1_2 - t_1_7 - 1000.000000 u_1_2_7 - 0.000000 s_1_7  + 2000.000000 r_1_2_7 > -940.442644
s_2_2 + s_2_7 + 1000 r_2_2_7 >= 2
- s_2_2 - s_2_7 - 1000 r_2_2_7 >= -1001
t_2_2 - t_2_7 - 1000.000000 u_2_2_7 - 0.000000 s_2_7  + 2000.000000 r_2_2_7 > -930.030300
t_1_2 - t_1_8 - 1000.000000 s_1_8  > -940.286400
t_1_2 - t_2_8 - 1000.000000 s_2_8  > -930.617200
t_2_2 - t_1_8 - 1000.000000 s_1_8  > -940.286400
t_2_2 - t_2_8 - 1000.000000 s_2_8  > -930.617200
s_1_3 + s_1_1 + 1000 r_1_1_3 >= 2
- s_1_3 - s_1_1 - 1000 r_1_1_3 >= -1001
t_1_3 - t_1_1 + 1000.000000 u_1_1_3 - 3.703886 s_1_1  + 3.703886 s_1_7  + 2000.000000 r_1_1_3 > 30.341356
s_2_3 + s_2_1 + 1000 r_2_1_3 >= 2
- s_2_3 - s_2_1 - 1000 r_2_1_3 >= -1001
t_2_3 - t_2_1 + 1000.000000 u_2_1_3 - 3.362924 s_2_1  + 3.362924 s_2_7  + 2000.000000 r_2_1_3 > 42.242525
s_1_3 + s_1_2 + 1000 r_1_2_3 >= 2
- s_1_3 - s_1_2 - 1000 r_1_2_3 >= -1001
t_1_3 - t_1_2 + 1000.000000 u_1_2_3 - 3.703886 s_1_2  + 3.703886 s_1_8  + 2000.000000 r_1_2_3 > 34.982100
s_2_3 + s_2_2 + 1000 r_2_2_3 >= 2
- s_2_3 - s_2_2 - 1000 r_2_2_3 >= -1001
t_2_3 - t_2_2 + 1000.000000 u_2_2_3 - 3.362924 s_2_2  + 3.362924 s_2_8  + 2000.000000 r_2_2_3 > 48.667411
t_1_4 - t_1_3 - 1003.703886 s_1_3  + 3.703886 s_1_8  > -958.171289
t_1_4 - t_2_3 - 1003.362924 s_2_3  + 3.362924 s_2_8  > -931.066627
t_2_4 - t_1_3 - 1003.703886 s_1_3  + 3.703886 s_1_8  > -958.171289
t_2_4 - t_2_3 - 1003.362924 s_2_3  + 3.362924 s_2_8  > -931.066627
s_1_3 + s_1_5 + 1000 r_1_3_5 >= 2
- s_1_3 - s_1_5 - 1000 r_1_3_5 >= -1001
t_1_3 - t_1_5 - 1000.000000 u_1_3_5 - 7.407772 s_1_5  + 3.703886 s_1_7  + 3.703886 s_1_8  + 2000.000000 r_1_3_5 > -979.142067
s_2_3 + s_2_5 + 1000 r_2_3_5 >= 2
- s_2_3 - s_2_5 - 1000 r_2_3_5 >= -1001
t_2_3 - t_2_5 - 1000.000000 u_2_3_5 - 6.725849 s_2_5  + 3.362924 s_2_7  + 3.362924 s_2_8  + 2000.000000 r_2_3_5 > -965.839431
t_1_6 - t_1_3 - 1003.703886 s_1_3  + 3.703886 s_1_8  > -958.171289
t_1_6 - t_2_3 - 1003.362924 s_2_3  + 3.362924 s_2_8  > -931.066627
t_2_6 - t_1_3 - 1003.703886 s_1_3  + 3.703886 s_1_8  > -958.171289
t_2_6 - t_2_3 - 1003.362924 s_2_3  + 3.362924 s_2_8  > -931.066627
s_1_3 + s_1_7 + 1000 r_1_3_7 >= 2
- s_1_3 - s_1_7 - 1000 r_1_3_7 >= -1001
t_1_3 - t_1_7 - 1000.000000 u_1_3_7 - 0.000000 s_1_7  + 2000.000000 r_1_3_7 > -940.442644
s_2_3 + s_2_7 + 1000 r_2_3_7 >= 2
- s_2_3 - s_2_7 - 1000 r_2_3_7 >= -1001
t_2_3 - t_2_7 - 1000.000000 u_2_3_7 - 0.000000 s_2_7  + 2000.000000 r_2_3_7 > -930.030300
t_1_3 - t_1_8 - 1000.000000 s_1_8  > -940.286400
t_1_3 - t_2_8 - 1000.000000 s_2_8  > -930.617200
t_2_3 - t_1_8 - 1000.000000 s_1_8  > -940.286400
t_2_3 - t_2_8 - 1000.000000 s_2_8  > -930.617200
s_1_4 + s_1_1 + 1000 r_1_1_4 >= 2
- s_1_4 - s_1_1 - 1000 r_1_1_4 >= -1001
t_1_4 - t_1_1 + 1000.000000 u_1_1_4 - 3.703886 s_1_1  + 3.703886 s_1_7  + 2000.000000 r_1_1_4 > 30.341356
s_2_4 + s_2_1 + 1000 r_2_1_4 >= 2
- s_2_4 - s_2_1 - 1000 r_2_1_4 >= -1001
t_2_4 - t_2_1 + 1000.000000 u_2_1_4 - 3.362924 s_2_1  + 3.362924 s_2_7  + 2000.000000 r_2_1_4 > 42.242525
s_1_4 + s_1_2 + 1000 r_1_2_4 >= 2
- s_1_4 - s_1_2 - 1000 r_1_2_4 >= -1001
t_1_4 - t_1_2 + 1000.000000 u_1_2_4 - 3.703886 s_1_2  + 3.703886 s_1_8  + 2000.000000 r_1_2_4 > 34.982100
s_2_4 + s_2_2 + 1000 r_2_2_4 >= 2
- s_2_4 - s_2_2 - 1000 r_2_2_4 >= -1001
t_2_4 - t_2_2 + 1000.000000 u_2_2_4 - 3.362924 s_2_2  + 3.362924 s_2_8  + 2000.000000 r_2_2_4 > 48.667411
s_1_4 + s_1_5 + 1000 r_1_4_5 >= 2
- s_1_4 - s_1_5 - 1000 r_1_4_5 >= -1001
t_1_4 - t_1_5 - 1000.000000 u_1_4_5 - 7.407772 s_1_5  + 3.703886 s_1_7  + 3.703886 s_1_8  + 2000.000000 r_1_4_5 > -979.142067
s_2_4 + s_2_5 + 1000 r_2_4_5 >= 2
- s_2_4 - s_2_5 - 1000 r_2_4_5 >= -1001
t_2_4 - t_2_5 - 1000.000000 u_2_4_5 - 6.725849 s_2_5  + 3.362924 s_2_7  + 3.362924 s_2_8  + 2000.000000 r_2_4_5 > -965.839431
t_1_6 - t_1_4 - 1007.407772 s_1_4  + 3.703886 s_1_3  + 3.703886 s_1_8  > -973.519633
t_1_6 - t_2_4 - 1006.725849 s_2_4  + 3.362924 s_2_3  + 3.362924 s_2_8  > -962.019844
t_2_6 - t_1_4 - 1007.407772 s_1_4  + 3.703886 s_1_3  + 3.703886 s_1_8  > -973.519633
t_2_6 - t_2_4 - 1006.725849 s_2_4  + 3.362924 s_2_3  + 3.362924 s_2_8  > -962.019844
s_1_4 + s_1_7 + 1000 r_1_4_7 >= 2
- s_1_4 - s_1_7 - 1000 r_1_4_7 >= -1001
t_1_4 - t_1_7 - 1000.000000 u_1_4_7 - 0.000000 s_1_7  + 2000.000000 r_1_4_7 > -940.442644
s_2_4 + s_2_7 + 1000 r_2_4_7 >= 2
- s_2_4 - s_2_7 - 1000 r_2_4_7 >= -1001
t_2_4 - t_2_7 - 1000.000000 u_2_4_7 - 0.000000 s_2_7  + 2000.000000 r_2_4_7 > -930.030300
t_1_4 - t_1_8 - 1000.000000 s_1_8  > -940.286400
t_1_4 - t_2_8 - 1000.000000 s_2_8  > -930.617200
t_2_4 - t_1_8 - 1000.000000 s_1_8  > -940.286400
t_2_4 - t_2_8 - 1000.000000 s_2_8  > -930.617200
s_1_5 + s_1_1 + 1000 r_1_1_5 >= 2
- s_1_5 - s_1_1 - 1000 r_1_1_5 >= -1001
t_1_5 - t_1_1 + 1000.000000 u_1_1_5 - 3.703886 s_1_1  + 3.703886 s_1_7  + 2000.000000 r_1_1_5 > 30.341356
s_2_5 + s_2_1 + 1000 r_2_1_5 >= 2
- s_2_5 - s_2_1 - 1000 r_2_1_5 >= -1001
t_2_5 - t_2_1 + 1000.000000 u_2_1_5 - 3.362924 s_2_1  + 3.362924 s_2_7  + 2000.000000 r_2_1_5 > 42.242525
s_1_5 + s_1_2 + 1000 r_1_2_5 >= 2
- s_1_5 - s_1_2 - 1000 r_1_2_5 >= -1001
t_1_5 - t_1_2 + 1000.000000 u_1_2_5 - 3.703886 s_1_2  + 3.703886 s_1_8  + 2000.000000 r_1_2_5 > 34.982100
s_2_5 + s_2_2 + 1000 r_2_2_5 >= 2
- s_2_5 - s_2_2 - 1000 r_2_2_5 >= -1001
t_2_5 - t_2_2 + 1000.000000 u_2_2_5 - 3.362924 s_2_2  + 3.362924 s_2_8  + 2000.000000 r_2_2_5 > 48.667411
s_1_5 + s_1_3 + 1000 r_1_3_5 >= 2
- s_1_5 - s_1_3 - 1000 r_1_3_5 >= -1001
t_1_5 - t_1_3 + 1000.000000 u_1_3_5 - 3.703886 s_1_3  + 3.703886 s_1_8  + 2000.000000 r_1_3_5 > 41.828711
s_2_5 + s_2_3 + 1000 r_2_3_5 >= 2
- s_2_5 - s_2_3 - 1000 r_2_3_5 >= -1001
t_2_5 - t_2_3 + 1000.000000 u_2_3_5 - 3.362924 s_2_3  + 3.362924 s_2_8  + 2000.000000 r_2_3_5 > 68.933373
s_1_5 + s_1_4 + 1000 r_1_4_5 >= 2
- s_1_5 - s_1_4 - 1000 r_1_4_5 >= -1001
t_1_5 - t_1_4 + 1000.000000 u_1_4_5 - 7.407772 s_1_4  + 3.703886 s_1_3  + 3.703886 s_1_8  + 2000.000000 r_1_4_5 > 26.480367
s_2_5 + s_2_4 + 1000 r_2_4_5 >= 2
- s_2_5 - s_2_4 - 1000 r_2_4_5 >= -1001
t_2_5 - t_2_4 + 1000.000000 u_2_4_5 - 6.725849 s_2_4  + 3.362924 s_2_3  + 3.362924 s_2_8  + 2000.000000 r_2_4_5 > 37.980156
t_1_6 - t_1_5 - 1007.407772 s_1_5  + 3.703886 s_1_7  + 3.703886 s_1_8  > -979.142067
t_1_6 - t_2_5 - 1006.725849 s_2_5  + 3.362924 s_2_7  + 3.362924 s_2_8  > -965.839431
t_2_6 - t_1_5 - 1007.407772 s_1_5  + 3.703886 s_1_7  + 3.703886 s_1_8  > -979.142067
t_2_6 - t_2_5 - 1006.725849 s_2_5  + 3.362924 s_2_7  + 3.362924 s_2_8  > -965.839431
t_1_5 - t_1_7 - 1000.000000 s_1_7  > -940.442644
t_1_5 - t_2_7 - 1000.000000 s_2_7  > -930.030300
t_2_5 - t_1_7 - 1000.000000 s_1_7  > -940.442644
t_2_5 - t_2_7 - 1000.000000 s_2_7  > -930.030300
t_1_5 - t_1_8 - 1000.000000 s_1_8  > -940.286400
t_1_5 - t_2_8 - 1000.000000 s_2_8  > -930.617200
t_2_5 - t_1_8 - 1000.000000 s_1_8  > -940.286400
t_2_5 - t_2_8 - 1000.000000 s_2_8  > -930.617200
s_1_7 + s_1_2 + 1000 r_1_2_7 >= 2
- s_1_7 - s_1_2 - 1000 r_1_2_7 >= -1001
t_1_7 - t_1_2 + 1000.000000 u_1_2_7 - 3.703886 s_1_2  + 3.703886 s_1_8  + 2000.000000 r_1_2_7 > 34.982100
s_2_7 + s_2_2 + 1000 r_2_2_7 >= 2
- s_2_7 - s_2_2 - 1000 r_2_2_7 >= -1001
t_2_7 - t_2_2 + 1000.000000 u_2_2_7 - 3.362924 s_2_2  + 3.362924 s_2_8  + 2000.000000 r_2_2_7 > 48.667411
s_1_7 + s_1_3 + 1000 r_1_3_7 >= 2
- s_1_7 - s_1_3 - 1000 r_1_3_7 >= -1001
t_1_7 - t_1_3 + 1000.000000 u_1_3_7 - 3.703886 s_1_3  + 3.703886 s_1_8  + 2000.000000 r_1_3_7 > 41.828711
s_2_7 + s_2_3 + 1000 r_2_3_7 >= 2
- s_2_7 - s_2_3 - 1000 r_2_3_7 >= -1001
t_2_7 - t_2_3 + 1000.000000 u_2_3_7 - 3.362924 s_2_3  + 3.362924 s_2_8  + 2000.000000 r_2_3_7 > 68.933373
s_1_7 + s_1_4 + 1000 r_1_4_7 >= 2
- s_1_7 - s_1_4 - 1000 r_1_4_7 >= -1001
t_1_7 - t_1_4 + 1000.000000 u_1_4_7 - 7.407772 s_1_4  + 3.703886 s_1_3  + 3.703886 s_1_8  + 2000.000000 r_1_4_7 > 26.480367
s_2_7 + s_2_4 + 1000 r_2_4_7 >= 2
- s_2_7 - s_2_4 - 1000 r_2_4_7 >= -1001
t_2_7 - t_2_4 + 1000.000000 u_2_4_7 - 6.725849 s_2_4  + 3.362924 s_2_3  + 3.362924 s_2_8  + 2000.000000 r_2_4_7 > 37.980156
s_1_7 + s_1_8 + 1000 r_1_7_8 >= 2
- s_1_7 - s_1_8 - 1000 r_1_7_8 >= -1001
t_1_7 - t_1_8 - 1000.000000 u_1_7_8 - 0.000000 s_1_8  + 2000.000000 r_1_7_8 > -940.286400
s_2_7 + s_2_8 + 1000 r_2_7_8 >= 2
- s_2_7 - s_2_8 - 1000 r_2_7_8 >= -1001
t_2_7 - t_2_8 - 1000.000000 u_2_7_8 - 0.000000 s_2_8  + 2000.000000 r_2_7_8 > -930.617200
s_1_8 + s_1_1 + 1000 r_1_1_8 >= 2
- s_1_8 - s_1_1 - 1000 r_1_1_8 >= -1001
t_1_8 - t_1_1 + 1000.000000 u_1_1_8 - 3.703886 s_1_1  + 3.703886 s_1_7  + 2000.000000 r_1_1_8 > 30.341356
s_2_8 + s_2_1 + 1000 r_2_1_8 >= 2
- s_2_8 - s_2_1 - 1000 r_2_1_8 >= -1001
t_2_8 - t_2_1 + 1000.000000 u_2_1_8 - 3.362924 s_2_1  + 3.362924 s_2_7  + 2000.000000 r_2_1_8 > 42.242525
s_1_8 + s_1_7 + 1000 r_1_7_8 >= 2
- s_1_8 - s_1_7 - 1000 r_1_7_8 >= -1001
t_1_8 - t_1_7 + 1000.000000 u_1_7_8 - 0.000000 s_1_7  + 2000.000000 r_1_7_8 > 59.557356
s_2_8 + s_2_7 + 1000 r_2_7_8 >= 2
- s_2_8 - s_2_7 - 1000 r_2_7_8 >= -1001
t_2_8 - t_2_7 + 1000.000000 u_2_7_8 - 0.000000 s_2_7  + 2000.000000 r_2_7_8 > 69.969700
Binary
s_1_1
s_2_1
s_1_2
s_2_2
s_1_3
s_2_3
s_1_4
s_2_4
s_1_5
s_2_5
s_1_6
s_2_6
s_1_7
s_2_7
s_1_8
s_2_8
u_1_1_2
r_1_1_2
u_2_1_2
r_2_1_2
u_1_1_3
r_1_1_3
u_2_1_3
r_2_1_3
u_1_1_4
r_1_1_4
u_2_1_4
r_2_1_4
u_1_1_5
r_1_1_5
u_2_1_5
r_2_1_5
u_1_1_8
r_1_1_8
u_2_1_8
r_2_1_8
u_1_2_3
r_1_2_3
u_2_2_3
r_2_2_3
u_1_2_4
r_1_2_4
u_2_2_4
r_2_2_4
u_1_2_5
r_1_2_5
u_2_2_5
r_2_2_5
u_1_2_7
r_1_2_7
u_2_2_7
r_2_2_7
u_1_3_5
r_1_3_5
u_2_3_5
r_2_3_5
u_1_3_7
r_1_3_7
u_2_3_7
r_2_3_7
u_1_4_5
r_1_4_5
u_2_4_5
r_2_4_5
u_1_4_7
r_1_4_7
u_2_4_7
r_2_4_7
u_1_7_8
r_1_7_8
u_2_7_8
r_2_7_8

End
